Route #1: 25 18 15 3 37 11 12 7 8 21 
Route #2: 35 19 16 4 10 34 45 36 
Route #3: 41 22 32 42 39 
Route #4: 40 23 9 29 13 33 24 38 20 28 
Route #5: 5 14 26 43 17 44 
Route #6: 30 27 31 2 6 
cost 703.779
